ACTORES = {Actor0, Actor1, Actor2};
Escenas =[|0,1,0,1,1,1,0,1,1,1,1,1,1,1,0,1,0,1,1,1,12
		  |1,0,0,0,1,0,1,1,1,0,1,0,1,1,1,1,0,0,1,1,7
		  |0,0,0,1,0,1,1,0,0,1,0,0,0,1,1,0,0,0,1,0,2
		  |];
Duracion=[5, 1, 3, 2, 1, 4, 3, 4, 1, 3, 2, 2, 2, 2, 3, 3, 5, 2, 5, 5];
Disponibilidad = [|Actor0, 35
				  |Actor1, 62
				  |Actor2, 50|];
Evitar = [|Actor0, Actor1
		  |Actor0, Actor2|];
